TSPLIB/results11.tsp
NAME : results11
COMMENT : a comment by the user
TYPE : TSP
DIMENSION : 39
EDGE_WEIGHT_TYPE : EXPLICIT
EDGE_WEIGHT_FORMAT: FULL_MATRIX
EDGE_WEIGHT_SECTION
0 0 73200 106400 106400 139600 108202 138301 6261200 74128 74128 108214 112987 73200 74128 88865 132919 106400 108202 108214 108214 116656 138301 144345 158933 139600 0 9999999999 9999999999 9999999999 9999999999 9999999999 9999999999 9999999999 9999999999 9999999999 9999999999 9999999999 9999999999
0 0 0 73200 73200 106400 75005 105102 73229 7095959 7095959 75027 105000 0 7095959 75011 112987 73200 75005 75027 75027 89497 105102 113912 132919 106400 0 9999999999 9999999999 9999999999 9999999999 9999999999 9999999999 9999999999 9999999999 9999999999 9999999999 9999999999 9999999999
73200 0 0 0 73200 106400 75005 105102 73229 7095959 7095959 75027 105000 0 7095959 75011 112987 73200 75005 75027 75027 89497 105102 113912 132919 106400 9999999999 0 9999999999 9999999999 9999999999 9999999999 9999999999 9999999999 9999999999 9999999999 9999999999 9999999999 9999999999
106400 73200 0 0 0 73200 7831883 71905 106414 72330 72330 9041347 112987 73200 72330 87626 105000 0 7831883 9041347 9041347 75046 71905 87356 112987 73200 9999999999 0 9999999999 9999999999 9999999999 9999999999 9999999999 9999999999 9999999999 9999999999 9999999999 9999999999 9999999999
106400 73200 73200 0 0 0 7831883 71905 106414 72330 72330 9041347 112987 73200 72330 87626 105000 0 7831883 9041347 9041347 75046 71905 87356 112987 73200 9999999999 9999999999 0 9999999999 9999999999 9999999999 9999999999 9999999999 9999999999 9999999999 9999999999 9999999999 9999999999
139600 106400 106400 73200 0 0 71405 6361567 139609 105514 105514 71431 132919 106400 105514 114264 112987 73200 71405 71431 71431 87020 6361567 75024 105000 0 9999999999 9999999999 0 9999999999 9999999999 9999999999 9999999999 9999999999 9999999999 9999999999 9999999999 9999999999 9999999999
108202 75005 75005 7831883 7831883 71405 0 0 108204 74109 74109 4366400 114352 75005 74109 88437 105624 7831883 0 4366400 4366400 74400 70100 85709 112727 71405 9999999999 9999999999 9999999999 0 9999999999 9999999999 9999999999 9999999999 9999999999 9999999999 9999999999 9999999999 9999999999
138301 105102 105102 71905 71905 6361567 0 0 138303 104204 104204 70110 132419 105102 104204 112835 112944 71905 70100 70110 70110 85709 0 74400 105612 6361567 9999999999 9999999999 9999999999 0 9999999999 9999999999 9999999999 9999999999 9999999999 9999999999 9999999999 9999999999 9999999999
6261200 73229 73229 106414 106414 139609 108204 138303 0 0 74100 108200 114237 73229 74100 87872 133903 106414 108204 108200 108200 116027 138303 143883 159704 139609 9999999999 9999999999 9999999999 9999999999 0 9999999999 9999999999 9999999999 9999999999 9999999999 9999999999 9999999999 9999999999
74128 7095959 7095959 72330 72330 105514 74109 104204 0 0 0 74100 106406 7095959 0 73600 113839 72330 74109 74100 74100 87872 104204 112461 133269 105514 9999999999 9999999999 9999999999 9999999999 0 9999999999 9999999999 9999999999 9999999999 9999999999 9999999999 9999999999 9999999999
74128 7095959 7095959 72330 72330 105514 74109 104204 74100 0 0 0 106406 7095959 0 73600 113839 72330 74109 74100 74100 87872 104204 112461 133269 105514 9999999999 9999999999 9999999999 9999999999 9999999999 0 9999999999 9999999999 9999999999 9999999999 9999999999 9999999999 9999999999
108214 75027 75027 9041347 9041347 71431 4366400 70110 108200 74100 0 0 115059 75027 74100 87872 106424 9041347 4366400 0 0 73600 70110 85110 113450 71431 9999999999 9999999999 9999999999 9999999999 9999999999 0 9999999999 9999999999 9999999999 9999999999 9999999999 9999999999 9999999999
112987 105000 105000 112987 112987 132919 114352 132419 114237 106406 106406 115059 0 0 106406 140004 73200 112987 114352 115059 115059 145948 132419 159323 106400 132919 9999999999 9999999999 9999999999 9999999999 9999999999 9999999999 0 9999999999 9999999999 9999999999 9999999999 9999999999 9999999999
73200 0 0 73200 73200 106400 75005 105102 73229 7095959 7095959 75027 0 0 7095959 75011 112987 73200 75005 75027 75027 89497 105102 113912 132919 106400 9999999999 9999999999 9999999999 9999999999 9999999999 9999999999 0 9999999999 9999999999 9999999999 9999999999 9999999999 9999999999
74128 7095959 7095959 72330 72330 105514 74109 104204 74100 0 0 74100 106406 7095959 0 0 113839 72330 74109 74100 74100 87872 104204 112461 133269 105514 9999999999 9999999999 9999999999 9999999999 9999999999 9999999999 9999999999 0 9999999999 9999999999 9999999999 9999999999 9999999999
88865 75011 75011 87626 87626 114264 88437 112835 87872 73600 73600 87872 140004 75011 0 0 145087 87626 88437 87872 87872 74100 112835 104200 159541 114264 9999999999 9999999999 9999999999 9999999999 9999999999 9999999999 9999999999 0 9999999999 9999999999 9999999999 9999999999 9999999999
132919 112987 112987 105000 105000 112987 105624 112944 133903 113839 113839 106424 73200 112987 113839 145087 0 0 105624 106424 106424 140016 112944 144964 73200 112987 9999999999 9999999999 9999999999 9999999999 9999999999 9999999999 9999999999 9999999999 0 9999999999 9999999999 9999999999 9999999999
106400 73200 73200 0 0 73200 7831883 71905 106414 72330 72330 9041347 112987 73200 72330 87626 0 0 7831883 9041347 9041347 75046 71905 87356 112987 73200 9999999999 9999999999 9999999999 9999999999 9999999999 9999999999 9999999999 9999999999 0 9999999999 9999999999 9999999999 9999999999
108202 75005 75005 7831883 7831883 71405 0 70100 108204 74109 74109 4366400 114352 75005 74109 88437 105624 7831883 0 0 4366400 74400 70100 85709 112727 71405 9999999999 9999999999 9999999999 9999999999 9999999999 9999999999 9999999999 9999999999 9999999999 0 9999999999 9999999999 9999999999
108214 75027 75027 9041347 9041347 71431 4366400 70110 108200 74100 74100 0 115059 75027 74100 87872 106424 9041347 0 0 0 73600 70110 85110 113450 71431 9999999999 9999999999 9999999999 9999999999 9999999999 9999999999 9999999999 9999999999 9999999999 0 9999999999 9999999999 9999999999
108214 75027 75027 9041347 9041347 71431 4366400 70110 108200 74100 74100 0 115059 75027 74100 87872 106424 9041347 4366400 0 0 0 70110 85110 113450 71431 9999999999 9999999999 9999999999 9999999999 9999999999 9999999999 9999999999 9999999999 9999999999 9999999999 0 9999999999 9999999999
116656 89497 89497 75046 75046 87020 74400 85709 116027 87872 87872 73600 145948 89497 87872 74100 140016 75046 74400 73600 0 0 85709 70100 144813 87020 9999999999 9999999999 9999999999 9999999999 9999999999 9999999999 9999999999 9999999999 9999999999 9999999999 0 9999999999 9999999999
138301 105102 105102 71905 71905 6361567 70100 0 138303 104204 104204 70110 132419 105102 104204 112835 112944 71905 70100 70110 70110 85709 0 0 105612 6361567 9999999999 9999999999 9999999999 9999999999 9999999999 9999999999 9999999999 9999999999 9999999999 9999999999 9999999999 0 9999999999
144345 113912 113912 87356 87356 75024 85709 74400 143883 112461 112461 85110 159323 113912 112461 104200 144964 87356 85709 85110 85110 70100 0 0 140008 75024 9999999999 9999999999 9999999999 9999999999 9999999999 9999999999 9999999999 9999999999 9999999999 9999999999 9999999999 0 9999999999
158933 132919 132919 112987 112987 105000 112727 105612 159704 133269 133269 113450 106400 132919 133269 159541 73200 112987 112727 113450 113450 144813 105612 140008 0 0 9999999999 9999999999 9999999999 9999999999 9999999999 9999999999 9999999999 9999999999 9999999999 9999999999 9999999999 9999999999 0
139600 106400 106400 73200 73200 0 71405 6361567 139609 105514 105514 71431 132919 106400 105514 114264 112987 73200 71405 71431 71431 87020 6361567 75024 0 0 9999999999 9999999999 9999999999 9999999999 9999999999 9999999999 9999999999 9999999999 9999999999 9999999999 9999999999 9999999999 0
0 0 9999999999 9999999999 9999999999 9999999999 9999999999 9999999999 9999999999 9999999999 9999999999 9999999999 9999999999 9999999999 9999999999 9999999999 9999999999 9999999999 9999999999 9999999999 9999999999 9999999999 9999999999 9999999999 9999999999 9999999999 0 9999999999 9999999999 9999999999 9999999999 9999999999 9999999999 9999999999 9999999999 9999999999 9999999999 9999999999 9999999999
9999999999 9999999999 0 0 9999999999 9999999999 9999999999 9999999999 9999999999 9999999999 9999999999 9999999999 9999999999 9999999999 9999999999 9999999999 9999999999 9999999999 9999999999 9999999999 9999999999 9999999999 9999999999 9999999999 9999999999 9999999999 9999999999 0 9999999999 9999999999 9999999999 9999999999 9999999999 9999999999 9999999999 9999999999 9999999999 9999999999 9999999999
9999999999 9999999999 9999999999 9999999999 0 0 9999999999 9999999999 9999999999 9999999999 9999999999 9999999999 9999999999 9999999999 9999999999 9999999999 9999999999 9999999999 9999999999 9999999999 9999999999 9999999999 9999999999 9999999999 9999999999 9999999999 9999999999 9999999999 0 9999999999 9999999999 9999999999 9999999999 9999999999 9999999999 9999999999 9999999999 9999999999 9999999999
9999999999 9999999999 9999999999 9999999999 9999999999 9999999999 0 0 9999999999 9999999999 9999999999 9999999999 9999999999 9999999999 9999999999 9999999999 9999999999 9999999999 9999999999 9999999999 9999999999 9999999999 9999999999 9999999999 9999999999 9999999999 9999999999 9999999999 9999999999 0 9999999999 9999999999 9999999999 9999999999 9999999999 9999999999 9999999999 9999999999 9999999999
9999999999 9999999999 9999999999 9999999999 9999999999 9999999999 9999999999 9999999999 0 0 9999999999 9999999999 9999999999 9999999999 9999999999 9999999999 9999999999 9999999999 9999999999 9999999999 9999999999 9999999999 9999999999 9999999999 9999999999 9999999999 9999999999 9999999999 9999999999 9999999999 0 9999999999 9999999999 9999999999 9999999999 9999999999 9999999999 9999999999 9999999999
9999999999 9999999999 9999999999 9999999999 9999999999 9999999999 9999999999 9999999999 9999999999 9999999999 0 0 9999999999 9999999999 9999999999 9999999999 9999999999 9999999999 9999999999 9999999999 9999999999 9999999999 9999999999 9999999999 9999999999 9999999999 9999999999 9999999999 9999999999 9999999999 9999999999 0 9999999999 9999999999 9999999999 9999999999 9999999999 9999999999 9999999999
9999999999 9999999999 9999999999 9999999999 9999999999 9999999999 9999999999 9999999999 9999999999 9999999999 9999999999 9999999999 0 0 9999999999 9999999999 9999999999 9999999999 9999999999 9999999999 9999999999 9999999999 9999999999 9999999999 9999999999 9999999999 9999999999 9999999999 9999999999 9999999999 9999999999 9999999999 0 9999999999 9999999999 9999999999 9999999999 9999999999 9999999999
9999999999 9999999999 9999999999 9999999999 9999999999 9999999999 9999999999 9999999999 9999999999 9999999999 9999999999 9999999999 9999999999 9999999999 0 0 9999999999 9999999999 9999999999 9999999999 9999999999 9999999999 9999999999 9999999999 9999999999 9999999999 9999999999 9999999999 9999999999 9999999999 9999999999 9999999999 9999999999 0 9999999999 9999999999 9999999999 9999999999 9999999999
9999999999 9999999999 9999999999 9999999999 9999999999 9999999999 9999999999 9999999999 9999999999 9999999999 9999999999 9999999999 9999999999 9999999999 9999999999 9999999999 0 0 9999999999 9999999999 9999999999 9999999999 9999999999 9999999999 9999999999 9999999999 9999999999 9999999999 9999999999 9999999999 9999999999 9999999999 9999999999 9999999999 0 9999999999 9999999999 9999999999 9999999999
9999999999 9999999999 9999999999 9999999999 9999999999 9999999999 9999999999 9999999999 9999999999 9999999999 9999999999 9999999999 9999999999 9999999999 9999999999 9999999999 9999999999 9999999999 0 0 9999999999 9999999999 9999999999 9999999999 9999999999 9999999999 9999999999 9999999999 9999999999 9999999999 9999999999 9999999999 9999999999 9999999999 9999999999 0 9999999999 9999999999 9999999999
9999999999 9999999999 9999999999 9999999999 9999999999 9999999999 9999999999 9999999999 9999999999 9999999999 9999999999 9999999999 9999999999 9999999999 9999999999 9999999999 9999999999 9999999999 9999999999 9999999999 0 0 9999999999 9999999999 9999999999 9999999999 9999999999 9999999999 9999999999 9999999999 9999999999 9999999999 9999999999 9999999999 9999999999 9999999999 0 9999999999 9999999999
9999999999 9999999999 9999999999 9999999999 9999999999 9999999999 9999999999 9999999999 9999999999 9999999999 9999999999 9999999999 9999999999 9999999999 9999999999 9999999999 9999999999 9999999999 9999999999 9999999999 9999999999 9999999999 0 0 9999999999 9999999999 9999999999 9999999999 9999999999 9999999999 9999999999 9999999999 9999999999 9999999999 9999999999 9999999999 9999999999 0 9999999999
9999999999 9999999999 9999999999 9999999999 9999999999 9999999999 9999999999 9999999999 9999999999 9999999999 9999999999 9999999999 9999999999 9999999999 9999999999 9999999999 9999999999 9999999999 9999999999 9999999999 9999999999 9999999999 9999999999 9999999999 0 0 9999999999 9999999999 9999999999 9999999999 9999999999 9999999999 9999999999 9999999999 9999999999 9999999999 9999999999 9999999999 0
EOF
